NAME : n60w80.003.656.tour
COMMENT : Length = 656
COMMENT : Found by LKH [Keld Helsgaun] Tue May  2 05:46:15 2017
TYPE : TOUR
DIMENSION : 61
TOUR_SECTION
1
42
53
47
48
41
31
15
8
20
39
33
59
11
9
28
44
18
23
52
26
34
51
3
38
57
60
6
14
12
45
36
13
35
5
56
4
27
30
50
19
25
21
2
58
24
22
55
49
29
32
40
10
46
7
37
43
54
61
17
16
-1
EOF
